p cnf 26 18
-1 -2 -3 24 0 
-4 -3 24 0 
-5 -4 -6 -3 24 0 
-7 -8 24 0 
-9 24 0 
-10 24 0 
-11 12 22 25 26 0 
-12 11 22 -13 15 18 24 0 
-12 11 22 24 0 
-4 24 0 
-1 -8 24 0 
-14 24 0 
-15 13 18 -16 24 0 
-17 -18 13 15 24 0 
-19 -20 24 0 
-21 25 26 0 
-22 11 12 24 0 
-1 -23 24 0 
